
Gurobi 11.0.3 (linux64) logging started Fri Nov 22 23:57:32 2024

Set parameter LogFile to value "/home/yihong/Coding/OR_SUC/SUC_results_bigM100000_thread4/case24_ieee_rts_theta0.1_epsilon0.025_gurobi_seed520000_num_gen100_N_WDR100_load_scaling_factor1_exact_T24quadra_cost.txt"
Set parameter TimeLimit to value 3600
Gurobi Optimizer version 11.0.3 build v11.0.3rc0 (linux64 - "Ubuntu 20.04.6 LTS")

CPU model: AMD EPYC 7532 32-Core Processor, instruction set [SSE2|AVX|AVX2]
Thread count: 64 physical cores, 128 logical processors, using up to 4 threads

Optimize a model with 52043 rows, 29961 columns and 712938 nonzeros
Model fingerprint: 0x28e49fd4
Model has 2400 quadratic constraints
Variable types: 27461 continuous, 2500 integer (2500 binary)
Coefficient statistics:
  Matrix range     [6e-05, 1e+05]
  QMatrix range    [2e-03, 8e-03]
  QLMatrix range   [2e-01, 6e+01]
  Objective range  [1e+00, 1e+00]
  Bounds range     [1e+00, 1e+00]
  RHS range        [1e+00, 1e+05]
Presolve removed 42162 rows and 12991 columns
Presolve time: 0.23s
Presolved: 9881 rows, 16970 columns, 62144 nonzeros
Presolved model has 2400 quadratic constraint(s)
Variable types: 14513 continuous, 2457 integer (2457 binary)

Root relaxation: objective 4.069216e+04, 7939 iterations, 0.19 seconds (0.28 work units)

    Nodes    |    Current Node    |     Objective Bounds      |     Work
 Expl Unexpl |  Obj  Depth IntInf | Incumbent    BestBd   Gap | It/Node Time

     0     0 40692.1577    0    4          - 40692.1577      -     -    0s
     0     0 353836.986    0  694          - 353836.986      -     -    0s
     0     0 392836.685    0  664          - 392836.685      -     -    1s
     0     0 625482.612    0  623          - 625482.612      -     -    1s
     0     0 625692.561    0  362          - 625692.561      -     -    1s
     0     0 626512.389    0  314          - 626512.389      -     -    1s
     0     0 626517.948    0  314          - 626517.948      -     -    1s
     0     0 626892.560    0  314          - 626892.560      -     -    1s
     0     0 626915.835    0  314          - 626915.835      -     -    1s
     0     2 626915.835    0  314          - 626915.835      -     -    2s
H  507   403                    673510.31300 626948.704  6.91%  36.2    4s
*  507   403             163    673510.31300 626948.704  6.91%  36.2    4s
H  511   218                    627284.72032 626948.704  0.05%  36.5    5s
*  511   218             194    627284.72032 626948.704  0.05%  36.5    5s

Cutting planes:
  Gomory: 3
  Implied bound: 229
  MIR: 71
  Flow cover: 135
  PSD: 9

Explored 517 nodes (40480 simplex iterations) in 5.81 seconds (7.44 work units)
Thread count was 4 (of 128 available processors)

Solution count 3: 627285 627285 673510 

Optimal solution found (tolerance 1.00e-03)
Warning: max constraint violation (4.0439e-07) exceeds tolerance
Best objective 6.272847203180e+05, best bound 6.269487036475e+05, gap 0.0536%
